24

1 19 13
2 19 23
3 19 22
4 11 19
5 1 1
6 24 24
7 20 16
8 7 6
9 16 23
10 23 3
11 15 11
12 19 13
13 19 8
14 22 7
15 6 13
16 20 19
17 8 23
18 16 11
19 7 11
20 24 17
21 14 14
22 5 8
23 16 18
24 1 6

62
